
Gurobi 9.5.0 (linux64) logging started Fri Dec  8 16:28:19 2023

Set parameter LogFile to value "/lustre1/scratch/348/vsc34888/JointResearch/05.Models/06.Benchmarking/G.Representative_days_based_on_Line_Benefit_NN_OC_fy_2/RTS24_mod1_ByStages_nc400/openStarNet_RTS24_mod1_ByStages_nc400.log"
Set parameter Method to value 2
Set parameter MIPFocus to value 1
Set parameter Presolve to value 2
Set parameter RINS to value 100
Set parameter MIPGap to value 0.01
Set parameter Threads to value 36
Set parameter TimeLimit to value 259200
Set parameter IterationLimit to value 760000000
Gurobi Optimizer version 9.5.0 build v9.5.0rc5 (linux64)
Thread count: 36 physical cores, 36 logical processors, using up to 36 threads
Optimize a model with 140228 rows, 94659 columns and 382345 nonzeros
Model fingerprint: 0x0d1e79a4
Variable types: 94638 continuous, 21 integer (21 binary)
Coefficient statistics:
  Matrix range     [2e-04, 3e+02]
  Objective range  [1e+00, 1e+00]
  Bounds range     [4e-05, 3e+00]
  RHS range        [4e-05, 3e+00]
Presolve removed 83548 rows and 48064 columns
Presolve time: 0.54s
Presolved: 56680 rows, 46595 columns, 204750 nonzeros
Variable types: 46574 continuous, 21 integer (21 binary)
Root relaxation presolved: 56680 rows, 46595 columns, 204750 nonzeros

Root barrier log...

Ordering time: 0.01s

Barrier statistics:
 Dense cols : 21
 AA' NZ     : 3.804e+05
 Factor NZ  : 1.126e+06 (roughly 50 MB of memory)
 Factor Ops : 2.670e+07 (less than 1 second per iteration)
 Threads    : 35

                  Objective                Residual
Iter       Primal          Dual         Primal    Dual     Compl     Time
   0   6.59858185e+05 -1.09086200e+08  5.28e+00 5.81e+01  2.32e+03     1s
   1   1.04233116e+05 -2.80674320e+07  6.94e-01 1.05e-08  3.22e+02     1s
   2   4.30796633e+04 -1.55073694e+07  1.88e-01 1.48e-08  1.38e+02     1s
   3   2.16023339e+04 -1.55743187e+06  8.35e-03 1.42e-09  1.22e+01     1s
   4   1.27200993e+04 -1.93389946e+05  3.42e-04 1.91e-10  1.56e+00     1s
   5   4.96584989e+03 -4.29829584e+04  7.04e-05 3.83e-11  3.63e-01     1s
   6   1.56621368e+03 -9.23055224e+03  1.47e-05 7.57e-12  8.18e-02     1s
   7   5.43117716e+02 -2.66441644e+03  2.22e-06 2.18e-12  2.43e-02     1s
   8   2.96315833e+02 -8.99620292e+02  7.46e-07 7.14e-13  9.06e-03     1s
   9   2.14597313e+02 -4.20251806e+02  4.18e-07 3.78e-13  4.81e-03     1s
  10   1.27853834e+02 -1.24073658e+02  1.58e-07 2.27e-13  1.91e-03     1s
  11   9.06666797e+01 -2.82207873e+01  7.08e-08 2.27e-13  9.00e-04     1s
  12   7.85667006e+01  1.42750497e+01  4.54e-08 4.55e-13  4.87e-04     1s
  13   7.31100627e+01  2.64652471e+01  3.43e-08 2.27e-13  3.53e-04     1s
  14   6.85732891e+01  2.95553345e+01  2.52e-08 2.27e-13  2.96e-04     1s
  15   6.51433658e+01  3.50336391e+01  1.85e-08 2.27e-13  2.28e-04     1s
  16   6.30943564e+01  4.40869097e+01  1.47e-08 2.27e-13  1.44e-04     1s
  17   6.10292422e+01  4.75889048e+01  1.05e-08 4.55e-13  1.02e-04     1s
  18   5.96386016e+01  4.96102450e+01  7.69e-09 2.27e-13  7.59e-05     1s
  19   5.85057452e+01  5.03518150e+01  5.53e-09 2.27e-13  6.18e-05     1s
  20   5.79216217e+01  5.13339160e+01  4.31e-09 2.27e-13  4.99e-05     1s
  21   5.78660787e+01  5.20299179e+01  4.19e-09 2.27e-13  4.42e-05     1s
  22   5.75513574e+01  5.25794740e+01  3.48e-09 2.27e-13  3.77e-05     1s
  23   5.72274642e+01  5.32706738e+01  2.80e-09 2.27e-13  3.00e-05     1s
  24   5.68100692e+01  5.36864341e+01  1.88e-09 2.27e-13  2.37e-05     2s
  25   5.66021394e+01  5.39075023e+01  1.47e-09 2.27e-13  2.04e-05     2s
  26   5.65922697e+01  5.40765645e+01  1.45e-09 4.55e-13  1.91e-05     2s
  27   5.65336179e+01  5.42297187e+01  1.34e-09 4.55e-13  1.74e-05     2s
  28   5.64339193e+01  5.44578642e+01  1.13e-09 1.14e-13  1.50e-05     2s
  29   5.63142593e+01  5.46663874e+01  8.84e-10 2.27e-13  1.25e-05     2s
  30   5.62241767e+01  5.48927989e+01  7.02e-10 2.27e-13  1.01e-05     2s
  31   5.60810779e+01  5.50259960e+01  4.07e-10 2.27e-13  7.99e-06     2s
  32   5.60344281e+01  5.52280950e+01  3.11e-10 4.55e-13  6.11e-06     2s
  33   5.60124940e+01  5.52503602e+01  2.68e-10 4.55e-13  5.77e-06     2s
  34   5.59666044e+01  5.54084429e+01  1.71e-10 2.27e-13  4.23e-06     2s
  35   5.59418406e+01  5.54751552e+01  1.21e-10 4.55e-13  3.53e-06     2s
  36   5.59350280e+01  5.54977381e+01  1.08e-10 2.27e-13  3.31e-06     2s
  37   5.59193200e+01  5.55303017e+01  7.82e-11 2.27e-13  2.95e-06     2s
  38   5.59089087e+01  5.57076265e+01  5.70e-11 2.27e-13  1.52e-06     2s
  39   5.59072371e+01  5.58077090e+01  5.41e-11 4.55e-13  7.54e-07     2s
  40   5.58887467e+01  5.58226574e+01  3.16e-10 2.27e-13  5.01e-07     2s
  41   5.58805302e+01  5.58419158e+01  4.88e-11 2.27e-13  2.92e-07     2s
  42   5.58791713e+01  5.58665722e+01  1.72e-11 2.27e-13  9.54e-08     2s
  43   5.58785762e+01  5.58719952e+01  2.70e-11 2.27e-13  4.98e-08     2s
  44   5.58785430e+01  5.58738305e+01  2.72e-11 2.27e-13  3.57e-08     2s
  45   5.58781687e+01  5.58753441e+01  6.50e-11 2.27e-13  2.14e-08     2s
  46   5.58781386e+01  5.58764318e+01  1.49e-10 4.55e-13  1.29e-08     2s
  47   5.58781261e+01  5.58764654e+01  1.36e-10 4.55e-13  1.26e-08     2s
  48   5.58780809e+01  5.58770713e+01  2.39e-09 4.55e-13  7.65e-09     2s
  49   5.58780808e+01  5.58772734e+01  2.31e-09 2.27e-13  6.12e-09     2s
  50   5.58780722e+01  5.58773406e+01  2.38e-09 4.55e-13  5.54e-09     2s
  51   5.58780630e+01  5.58774988e+01  1.23e-09 4.55e-13  4.27e-09     2s
  52   5.58780635e+01  5.58777866e+01  1.24e-09 5.28e-13  2.10e-09     2s
  53   5.58780594e+01  5.58778033e+01  6.18e-10 4.55e-13  1.94e-09     2s
  54   5.58780582e+01  5.58778260e+01  4.42e-10 1.34e-12  1.76e-09     2s
  55   5.58780564e+01  5.58779165e+01  2.79e-10 6.04e-12  1.06e-09     2s
  56   5.58780560e+01  5.58780093e+01  1.32e-10 5.25e-11  3.54e-10     2s
  57   5.58780555e+01  5.58780334e+01  3.90e-10 2.41e-11  1.67e-10     2s
  58   5.58780553e+01  5.58780552e+01  1.16e-10 4.55e-13  1.77e-13     2s

Barrier solved model in 58 iterations and 2.47 seconds (2.20 work units)
Optimal objective 5.58780553e+01


Root relaxation: objective 5.587806e+01, 8251 iterations, 2.23 seconds (1.91 work units)

    Nodes    |    Current Node    |     Objective Bounds      |     Work
 Expl Unexpl |  Obj  Depth IntInf | Incumbent    BestBd   Gap | It/Node Time

     0     0   55.87806    0   16          -   55.87806      -     -    4s
H    0     0                     102.3856152   55.87806  45.4%     -    4s
H    0     0                      92.8740446   56.55425  39.1%     -    9s
     0     0   56.55425    0   10   92.87404   56.55425  39.1%     -    9s
     0     0   56.56046    0   10   92.87404   56.56046  39.1%     -   10s
     0     0   56.86460    0   14   92.87404   56.86460  38.8%     -   13s
     0     0   56.90698    0   11   92.87404   56.90698  38.7%     -   13s
     0     0   57.01341    0    9   92.87404   57.01341  38.6%     -   15s
     0     0   57.04838    0   10   92.87404   57.04838  38.6%     -   16s
     0     0   57.05102    0    9   92.87404   57.05102  38.6%     -   16s
H    0     0                      86.8647387   57.05102  34.3%     -   17s
     0     0   57.05477    0   10   86.86474   57.05477  34.3%     -   17s
     0     0   57.06250    0    9   86.86474   57.06250  34.3%     -   18s
     0     0   57.06250    0    9   86.86474   57.06250  34.3%     -   18s
     0     0   57.06420    0   10   86.86474   57.06420  34.3%     -   21s
H    0     0                      79.8437152   57.06420  28.5%     -   27s
H    0     0                      74.8234968   57.06420  23.7%     -   52s
     0     2   57.06420    0   10   74.82350   57.06420  23.7%     -   53s
     1     4   57.14772    1   17   74.82350   57.06441  23.7%  3136   55s
    15    32   58.14422    4   14   74.82350   58.11596  22.3%  3039   61s
    31    60   59.94790    5   15   74.82350   58.15431  22.3%  2866   65s
H   99   124                      73.9769891   60.24500  18.6%  3054  119s
   135   149   64.73622    8   13   73.97699   60.24500  18.6%  2862  180s
H  139   149                      73.8798554   60.24500  18.5%  2857  180s
   171   165   66.13270    8   13   73.87986   60.24500  18.5%  2779  188s
   207   197   67.88620    9   12   73.87986   60.24500  18.5%  2783  191s
   261   205     cutoff    9        73.87986   60.24500  18.5%  2633  209s
   304   219   71.52226   10   11   73.87986   60.24500  18.5%  2575  214s
   354   240     cutoff   10        73.87986   60.24500  18.5%  2557  218s
   413   253     cutoff   11        73.87986   60.24500  18.5%  2522  222s
   480   243     cutoff   11        73.87986   60.24500  18.5%  2433  228s
   554   246   73.50258   12    9   73.87986   60.24500  18.5%  2375  233s
   629   252     cutoff   13        73.87986   60.47602  18.1%  2305  238s
   717   259     cutoff    7        73.87986   61.18083  17.2%  2231  244s
   795   267     cutoff    8        73.87986   61.18083  17.2%  2210  250s
   869   265   73.17385    8   11   73.87986   61.18083  17.2%  2213  256s
   959   274     cutoff    9        73.87986   61.18083  17.2%  2156  261s
  1056   297     cutoff    9        73.87986   62.51614  15.4%  2112  265s
  1153   319   67.78350    7   10   73.87986   62.51614  15.4%  2085  297s
  1201   319   69.47936    8    9   73.87986   62.51614  15.4%  2082  303s
  1349   304   72.88340   10   10   73.87986   62.51614  15.4%  1973  308s
  1495   308     cutoff   10        73.87986   65.06365  11.9%  1898  455s
  1636   290   70.47059   10   10   73.87986   65.06365  11.9%  1841  460s
  1798   311     cutoff   14        73.87986   67.46342  8.68%  1788  712s
  1883   268   72.05979    7    6   73.87986   67.46342  8.68%  1763  719s
  2122   223   73.66074   10   10   73.87986   67.96296  8.01%  1680  725s
  2341   157   72.47829    9   12   73.87986   68.02944  7.92%  1618  730s
  2581    81     cutoff   10        73.87986   68.02944  7.92%  1548  735s
  2906     7     cutoff   11        73.87986   70.02744  5.21%  1466  742s
  2943     5   73.86799   11   10   73.87986   70.75239  4.23%  1458  745s

Cutting planes:
  Implied bound: 197
  MIR: 1367
  Relax-and-lift: 243

Explored 2982 nodes (4344181 simplex iterations) in 748.47 seconds (1358.74 work units)
Thread count was 36 (of 36 available processors)

Solution count 7: 73.8799 73.977 74.8235 ... 102.386

Optimal solution found (tolerance 1.00e-02)
Best objective 7.387985540928e+01, best bound 7.387985540928e+01, gap 0.0000%

Gurobi 9.5.0 (linux64) logging started Fri Dec  8 16:41:53 2023

Set parameter LogFile to value "/lustre1/scratch/348/vsc34888/JointResearch/05.Models/06.Benchmarking/G.Representative_days_based_on_Line_Benefit_NN_OC_fy_2/RTS24_mod1_ByStages_nc400/openStarNet_RTS24_mod1_ByStages_nc400.log"
Set parameter Method to value 2
Set parameter MIPFocus to value 1
Set parameter Presolve to value 2
Set parameter RINS to value 100
Set parameter MIPGap to value 0.01
Set parameter Threads to value 36
Set parameter TimeLimit to value 259200
Set parameter IterationLimit to value 760000000
No parameters matching 'relax_integrality' found
Gurobi Optimizer version 9.5.0 build v9.5.0rc5 (linux64)
Thread count: 36 physical cores, 36 logical processors, using up to 36 threads
Optimize a model with 140228 rows, 94638 columns and 349144 nonzeros
Model fingerprint: 0x2ddde240
Coefficient statistics:
  Matrix range     [2e-04, 3e+02]
  Objective range  [1e+00, 1e+00]
  Bounds range     [4e-05, 3e+00]
  RHS range        [4e-05, 2e+01]
Presolve removed 117507 rows and 53663 columns
Presolve time: 0.18s
Presolved: 22721 rows, 41591 columns, 102758 nonzeros

Ordering time: 0.00s

Barrier statistics:
 AA' NZ     : 5.930e+04
 Factor NZ  : 1.941e+05 (roughly 20 MB of memory)
 Factor Ops : 2.496e+06 (less than 1 second per iteration)
 Threads    : 36

                  Objective                Residual
Iter       Primal          Dual         Primal    Dual     Compl     Time
   0   3.94531133e+06 -6.59445036e+07  5.41e+01 6.76e+01  1.66e+04     0s
   1   2.37686389e+05 -5.03588190e+07  2.71e+00 1.42e-12  1.42e+03     0s
   2   5.64668121e+04 -1.10011803e+07  4.60e-01 3.26e-12  2.27e+02     0s
   3   3.11088424e+04 -2.33336547e+06  8.24e-02 1.34e-12  3.92e+01     0s
   4   2.09707594e+04 -5.41151163e+05  6.70e-03 9.54e-13  8.11e+00     0s
   5   1.20737860e+04 -1.56356340e+05  4.05e-04 9.84e-13  2.38e+00     0s
   6   5.36535047e+03 -3.41211108e+04  7.88e-05 5.14e-13  5.58e-01     0s
   7   1.54727913e+03 -7.02562531e+03  1.38e-05 3.41e-13  1.21e-01     0s
   8   5.40272007e+02 -2.00699815e+03  1.85e-06 2.27e-13  3.60e-02     0s
   9   2.69002207e+02 -7.21788084e+02  2.18e-07 2.27e-13  1.40e-02     0s
  10   1.88910292e+02 -2.81908604e+02  9.83e-08 1.14e-13  6.65e-03     0s
  11   1.19066987e+02 -7.39786198e+01  2.82e-08 1.14e-13  2.73e-03     0s
  12   8.73461671e+01  4.50751861e+01  6.42e-09 2.27e-13  5.97e-04     0s
  13   7.81041283e+01  7.03050399e+01  1.83e-09 2.27e-13  1.10e-04     0s
  14   7.53362667e+01  7.25121565e+01  6.15e-10 2.27e-13  3.99e-05     0s
  15   7.45451191e+01  7.33643311e+01  2.74e-10 2.27e-13  1.67e-05     0s
  16   7.42134008e+01  7.36903949e+01  1.40e-10 1.14e-13  7.39e-06     0s
  17   7.39745718e+01  7.37921776e+01  1.96e-09 2.27e-13  2.58e-06     0s
  18   7.38859656e+01  7.38658067e+01  3.15e-09 2.27e-13  2.85e-07     0s
  19   7.38807538e+01  7.38779351e+01  1.92e-09 2.27e-13  3.98e-08     0s
  20   7.38798673e+01  7.38798330e+01  2.21e-09 4.55e-13  4.85e-10     0s
  21   7.38798554e+01  7.38798554e+01  1.87e-10 2.27e-13  7.04e-15     0s

Barrier solved model in 21 iterations and 0.47 seconds (0.46 work units)
Optimal objective 7.38798554e+01

Crossover log...

    5140 DPushes remaining with DInf 0.0000000e+00                 0s
       0 DPushes remaining with DInf 0.0000000e+00                 0s

    1380 PPushes remaining with PInf 0.0000000e+00                 0s
       0 PPushes remaining with PInf 0.0000000e+00                 1s

  Push phase complete: Pinf 0.0000000e+00, Dinf 1.0368460e-13      1s

Iteration    Objective       Primal Inf.    Dual Inf.      Time
    1428    7.3879855e+01   0.000000e+00   0.000000e+00      1s

Use crossover to convert LP symmetric solution to basic solution...
Crossover log...

       0 DPushes remaining with DInf 0.0000000e+00                 1s

    1158 PPushes remaining with PInf 0.0000000e+00                 1s
       0 PPushes remaining with PInf 0.0000000e+00                 1s

  Push phase complete: Pinf 0.0000000e+00, Dinf 8.6236343e-14      1s

Iteration    Objective       Primal Inf.    Dual Inf.      Time
    2719    7.3879855e+01   0.000000e+00   0.000000e+00      1s

Solved in 2719 iterations and 0.75 seconds (0.63 work units)
Optimal objective  7.387985541e+01
